* ENCODING=ISO-8859-1
NAME          CPLEX
ROWS
 N  obj1    
 G  c1      
 G  c2      
 G  c3      
 G  c4      
 G  c5      
 G  c6      
 G  c7      
 G  c8      
 G  c9      
 G  c10     
 G  c11     
 G  c12     
 G  c13     
 G  c14     
 G  c15     
 G  c16     
 G  c17     
 G  c18     
 G  c19     
 G  c20     
 G  c21     
 G  c22     
 G  c23     
 G  c24     
 G  c25     
COLUMNS
    MARK0000  'MARKER'                 'INTORG'
    x1        obj1                            1
    x1        c15                           473
    x1        c23                           711
    x2        obj1                            1
    x2        c2                            295
    x2        c22                           344
    x2        c25                           432
    x3        obj1                            1
    x3        c4                            777
    x3        c12                           906
    x4        obj1                            1
    x4        c3                            747
    x4        c5                            947
    x4        c10                           990
    x4        c11                           168
    x4        c12                           563
    x5        obj1                            1
    x6        obj1                            1
    x6        c3                            637
    x7        obj1                            1
    x7        c7                            659
    x7        c24                           124
    x8        obj1                            1
    x8        c13                           638
    x8        c21                           742
    x8        c24                           692
    x9        obj1                            1
    x9        c5                            307
    x9        c14                           805
    x10       obj1                            1
    x11       obj1                            1
    x11       c10                           388
    x11       c19                           355
    x11       c22                           677
    x12       obj1                            1
    x12       c8                            581
    x12       c18                           475
    x12       c23                           156
    x13       obj1                            1
    x13       c7                            776
    x14       obj1                            1
    x14       c10                           954
    x14       c24                           797
    x15       obj1                            1
    x15       c1                            423
    x15       c16                           823
    x16       obj1                            1
    x16       c18                           171
    x16       c19                           868
    x16       c21                           620
    x16       c23                           759
    x17       obj1                            1
    x17       c1                            678
    x17       c3                            135
    x17       c11                           974
    x17       c12                           876
    x18       obj1                            1
    x18       c4                            611
    x18       c5                            409
    x18       c7                            970
    x18       c9                            996
    x18       c24                           213
    x19       obj1                            1
    x19       c11                           577
    x19       c18                           125
    x20       obj1                            1
    x20       c3                            505
    x20       c4                            307
    x20       c12                           345
    x21       obj1                            1
    x21       c4                            902
    x21       c8                            964
    x22       obj1                            1
    x22       c4                            282
    x22       c14                           934
    x22       c19                           471
    x22       c21                           602
    x23       obj1                            1
    x23       c8                            976
    x23       c16                           451
    x23       c17                           258
    x23       c21                           425
    x24       obj1                            1
    x24       c9                            301
    x24       c15                           373
    x24       c20                           662
    x25       obj1                            1
    x25       c18                           509
    x25       c25                           798
    x26       obj1                            1
    x26       c5                            401
    x26       c12                           707
    x26       c13                           722
    x26       c18                           235
    x26       c20                           267
    x26       c23                           909
    x27       obj1                            1
    x27       c8                            153
    x27       c23                           717
    x28       obj1                            1
    x28       c1                            889
    x28       c3                            789
    x28       c25                           914
    x29       obj1                            1
    x30       obj1                            1
    x30       c3                            517
    x30       c8                            554
    x30       c13                           846
    x30       c19                           823
    x30       c20                           962
    x31       obj1                            1
    x31       c9                            440
    x31       c14                           531
    x31       c22                           234
    x32       obj1                            1
    x32       c6                            845
    x32       c10                           279
    x32       c11                           632
    x32       c17                           553
    x33       obj1                            1
    x33       c14                           683
    x33       c20                           111
    x34       obj1                            1
    x34       c5                            284
    x34       c15                           577
    x34       c17                           519
    x35       obj1                            1
    x35       c7                            580
    x35       c25                           563
    x36       obj1                            1
    x36       c5                            910
    x37       obj1                            1
    x37       c2                            960
    x38       obj1                            1
    x38       c6                            333
    x38       c10                           782
    x38       c13                           366
    x38       c21                           284
    x38       c23                           105
    x39       obj1                            1
    x39       c15                           393
    x39       c19                           920
    x40       obj1                            1
    x41       obj1                            1
    x41       c21                           990
    x42       obj1                            1
    x42       c25                           616
    x43       obj1                            1
    x43       c6                            382
    x43       c8                            322
    x43       c19                           306
    x44       obj1                            1
    x44       c11                           506
    x44       c12                           674
    x45       obj1                            1
    x45       c8                            469
    x45       c15                           162
    x46       obj1                            1
    x46       c4                            826
    x46       c16                           374
    x46       c20                           943
    x46       c25                           316
    x47       obj1                            1
    x47       c2                            481
    x47       c9                            336
    x47       c11                           138
    x47       c13                           264
    x47       c21                           520
    x47       c24                           942
    x48       obj1                            1
    x48       c24                           908
    x49       obj1                            1
    x49       c20                           788
    x49       c25                           469
    x50       obj1                            1
    x50       c7                            969
    x50       c9                            807
    x50       c14                           389
    x50       c16                           510
    MARK0001  'MARKER'                 'INTEND'
RHS
    rhs       c1                            995
    rhs       c2                            868
    rhs       c3                           1665
    rhs       c4                           1853
    rhs       c5                           1629
    rhs       c6                            780
    rhs       c7                           1977
    rhs       c8                           2010
    rhs       c9                           1440
    rhs       c10                          1697
    rhs       c11                          1498
    rhs       c12                          2036
    rhs       c13                          1418
    rhs       c14                          1671
    rhs       c15                           989
    rhs       c16                          1079
    rhs       c17                           665
    rhs       c18                           758
    rhs       c19                          1872
    rhs       c20                          1867
    rhs       c21                          2092
    rhs       c22                           628
    rhs       c23                          1679
    rhs       c24                          1838
    rhs       c25                          2054
BOUNDS
 LI bnd       x1        0
 LI bnd       x2        0
 LI bnd       x3        0
 LI bnd       x4        0
 LI bnd       x5        0
 LI bnd       x6        0
 LI bnd       x7        0
 LI bnd       x8        0
 LI bnd       x9        0
 LI bnd       x10       0
 LI bnd       x11       0
 LI bnd       x12       0
 LI bnd       x13       0
 LI bnd       x14       0
 LI bnd       x15       0
 LI bnd       x16       0
 LI bnd       x17       0
 LI bnd       x18       0
 LI bnd       x19       0
 LI bnd       x20       0
 LI bnd       x21       0
 LI bnd       x22       0
 LI bnd       x23       0
 LI bnd       x24       0
 LI bnd       x25       0
 LI bnd       x26       0
 LI bnd       x27       0
 LI bnd       x28       0
 LI bnd       x29       0
 LI bnd       x30       0
 LI bnd       x31       0
 LI bnd       x32       0
 LI bnd       x33       0
 LI bnd       x34       0
 LI bnd       x35       0
 LI bnd       x36       0
 LI bnd       x37       0
 LI bnd       x38       0
 LI bnd       x39       0
 LI bnd       x40       0
 LI bnd       x41       0
 LI bnd       x42       0
 LI bnd       x43       0
 LI bnd       x44       0
 LI bnd       x45       0
 LI bnd       x46       0
 LI bnd       x47       0
 LI bnd       x48       0
 LI bnd       x49       0
 LI bnd       x50       0
ENDATA
